
-17.24
-16.86
-16.66
-16.5
-16.32
-16.2
-16.06
-16.04
-16.0
-15.9
-15.72
-15.62
-15.46
-15.44
-15.44
-15.44
-15.36
-15.36
-15.34
-15.3
-15.3
-15.24
-15.24
-15.24
-15.22
-15.22
-15.22
-15.22
-15.22
-15.22
-15.22
-15.22
-15.22